60
1 0 5
2 0 8
2 1 5
3 0 6
3 1 8
3 2 7
4 0 8
4 1 6
4 2 4
4 3 8
5 0 3
5 1 10
5 2 3
5 3 9
5 4 10
6 0 8
6 1 5
6 2 4
6 3 3
6 4 5
6 5 8
7 0 9
7 1 2
7 2 3
7 3 2
7 4 9
7 5 4
7 6 6
8 0 8
8 1 8
8 2 4
8 3 10
8 4 5
8 5 4
8 6 7
8 7 2
9 0 9
9 1 5
9 2 9
9 3 5
9 4 5
9 5 6
9 6 5
9 7 4
9 8 4
10 0 10
10 1 6
10 2 9
10 3 3
10 4 5
10 5 6
10 6 7
10 7 2
10 8 1
10 9 4
11 0 3
11 1 3
11 2 8
11 3 6
11 4 4
11 5 6
11 6 4
11 7 4
11 8 6
11 9 3
11 10 6
12 0 4
12 1 7
12 2 7
12 3 4
12 4 2
12 5 1
12 6 8
12 7 3
12 8 1
12 9 4
12 10 8
12 11 10
13 0 7
13 1 6
13 2 2
13 3 9
13 4 6
13 5 6
13 6 3
13 7 2
13 8 8
13 9 8
13 10 1
13 11 5
13 12 5
14 0 1
14 1 9
14 2 9
14 3 10
14 4 7
14 5 4
14 6 4
14 7 6
14 8 5
14 9 7
14 10 3
14 11 4
14 12 8
14 13 8
15 0 3
15 1 5
15 2 3
15 3 10
15 4 1
15 5 4
15 6 9
15 7 3
15 8 1
15 9 8
15 10 7
15 11 1
15 12 4
15 13 9
15 14 10
16 0 8
16 1 6
16 2 10
16 3 9
16 4 4
16 5 4
16 6 2
16 7 8
16 8 4
16 9 9
16 10 5
16 11 10
16 12 9
16 13 9
16 14 8
16 15 1
17 0 9
17 1 10
17 2 1
17 3 7
17 4 3
17 5 2
17 6 1
17 7 2
17 8 10
17 9 8
17 10 6
17 11 1
17 12 9
17 13 4
17 14 10
17 15 5
17 16 9
18 0 3
18 1 3
18 2 10
18 3 1
18 4 9
18 5 7
18 6 7
18 7 5
18 8 2
18 9 6
18 10 1
18 11 8
18 12 7
18 13 4
18 14 1
18 15 3
18 16 8
18 17 2
19 0 1
19 1 2
19 2 6
19 3 4
19 4 9
19 5 1
19 6 7
19 7 9
19 8 2
19 9 8
19 10 6
19 11 8
19 12 5
19 13 4
19 14 6
19 15 2
19 16 9
19 17 6
19 18 8
20 0 6
20 1 6
20 2 2
20 3 1
20 4 7
20 5 4
20 6 1
20 7 1
20 8 1
20 9 3
20 10 9
20 11 2
20 12 2
20 13 3
20 14 6
20 15 10
20 16 10
20 17 5
20 18 6
20 19 6
21 0 4
21 1 9
21 2 8
21 3 5
21 4 1
21 5 2
21 6 2
21 7 10
21 8 5
21 9 3
21 10 8
21 11 2
21 12 1
21 13 8
21 14 9
21 15 10
21 16 6
21 17 9
21 18 10
21 19 10
21 20 7
22 0 3
22 1 4
22 2 1
22 3 9
22 4 4
22 5 9
22 6 10
22 7 8
22 8 3
22 9 7
22 10 10
22 11 2
22 12 1
22 13 6
22 14 2
22 15 2
22 16 7
22 17 5
22 18 7
22 19 7
22 20 1
22 21 6
23 0 5
23 1 3
23 2 9
23 3 4
23 4 3
23 5 9
23 6 2
23 7 6
23 8 9
23 9 6
23 10 7
23 11 8
23 12 6
23 13 3
23 14 10
23 15 3
23 16 8
23 17 5
23 18 6
23 19 4
23 20 6
23 21 8
23 22 10
24 0 5
24 1 8
24 2 7
24 3 7
24 4 3
24 5 10
24 6 1
24 7 7
24 8 4
24 9 5
24 10 2
24 11 1
24 12 2
24 13 4
24 14 3
24 15 10
24 16 5
24 17 5
24 18 10
24 19 7
24 20 8
24 21 8
24 22 6
24 23 5
25 0 3
25 1 2
25 2 7
25 3 1
25 4 9
25 5 3
25 6 2
25 7 6
25 8 4
25 9 10
25 10 8
25 11 2
25 12 8
25 13 8
25 14 2
25 15 1
25 16 2
25 17 3
25 18 8
25 19 10
25 20 9
25 21 4
25 22 2
25 23 5
25 24 9
26 0 3
26 1 4
26 2 7
26 3 2
26 4 1
26 5 6
26 6 8
26 7 3
26 8 2
26 9 6
26 10 4
26 11 9
26 12 1
26 13 4
26 14 10
26 15 6
26 16 8
26 17 2
26 18 1
26 19 6
26 20 1
26 21 6
26 22 3
26 23 2
26 24 2
26 25 4
27 0 7
27 1 6
27 2 7
27 3 6
27 4 6
27 5 10
27 6 5
27 7 8
27 8 2
27 9 4
27 10 5
27 11 7
27 12 4
27 13 6
27 14 6
27 15 2
27 16 4
27 17 3
27 18 1
27 19 8
27 20 10
27 21 8
27 22 10
27 23 10
27 24 3
27 25 6
27 26 9
28 0 4
28 1 6
28 2 3
28 3 1
28 4 3
28 5 3
28 6 4
28 7 10
28 8 2
28 9 8
28 10 1
28 11 9
28 12 7
28 13 10
28 14 7
28 15 10
28 16 5
28 17 9
28 18 2
28 19 10
28 20 10
28 21 8
28 22 1
28 23 3
28 24 6
28 25 3
28 26 10
28 27 5
29 0 5
29 1 4
29 2 7
29 3 5
29 4 8
29 5 6
29 6 1
29 7 6
29 8 9
29 9 3
29 10 8
29 11 8
29 12 2
29 13 10
29 14 8
29 15 1
29 16 6
29 17 8
29 18 5
29 19 4
29 20 7
29 21 7
29 22 10
29 23 5
29 24 1
29 25 3
29 26 3
29 27 7
29 28 1
30 0 2
30 1 1
30 2 5
30 3 5
30 4 8
30 5 7
30 6 1
30 7 6
30 8 4
30 9 1
30 10 5
30 11 7
30 12 9
30 13 10
30 14 2
30 15 2
30 16 4
30 17 5
30 18 9
30 19 2
30 20 10
30 21 3
30 22 10
30 23 3
30 24 7
30 25 2
30 26 10
30 27 7
30 28 1
30 29 2
31 0 5
31 1 4
31 2 5
31 3 5
31 4 6
31 5 2
31 6 3
31 7 7
31 8 5
31 9 1
31 10 6
31 11 10
31 12 8
31 13 5
31 14 6
31 15 3
31 16 7
31 17 1
31 18 5
31 19 3
31 20 7
31 21 4
31 22 1
31 23 4
31 24 7
31 25 4
31 26 8
31 27 7
31 28 7
31 29 6
31 30 3
32 0 5
32 1 4
32 2 5
32 3 4
32 4 1
32 5 2
32 6 8
32 7 5
32 8 4
32 9 4
32 10 2
32 11 1
32 12 2
32 13 9
32 14 5
32 15 6
32 16 7
32 17 10
32 18 10
32 19 10
32 20 3
32 21 10
32 22 10
32 23 2
32 24 10
32 25 9
32 26 8
32 27 10
32 28 8
32 29 2
32 30 5
32 31 3
33 0 10
33 1 8
33 2 8
33 3 7
33 4 3
33 5 8
33 6 4
33 7 10
33 8 2
33 9 3
33 10 1
33 11 8
33 12 4
33 13 10
33 14 10
33 15 10
33 16 2
33 17 4
33 18 1
33 19 7
33 20 5
33 21 6
33 22 4
33 23 10
33 24 9
33 25 4
33 26 3
33 27 10
33 28 2
33 29 6
33 30 4
33 31 3
33 32 9
34 0 3
34 1 6
34 2 1
34 3 7
34 4 7
34 5 7
34 6 3
34 7 4
34 8 1
34 9 4
34 10 2
34 11 5
34 12 7
34 13 1
34 14 2
34 15 9
34 16 10
34 17 7
34 18 1
34 19 6
34 20 2
34 21 2
34 22 7
34 23 4
34 24 10
34 25 5
34 26 5
34 27 5
34 28 9
34 29 2
34 30 6
34 31 4
34 32 3
34 33 5
35 0 9
35 1 9
35 2 3
35 3 7
35 4 5
35 5 5
35 6 2
35 7 9
35 8 2
35 9 7
35 10 10
35 11 4
35 12 7
35 13 1
35 14 3
35 15 1
35 16 10
35 17 8
35 18 9
35 19 4
35 20 1
35 21 7
35 22 2
35 23 6
35 24 10
35 25 7
35 26 3
35 27 6
35 28 9
35 29 7
35 30 8
35 31 5
35 32 2
35 33 9
35 34 2
36 0 2
36 1 4
36 2 9
36 3 5
36 4 4
36 5 3
36 6 2
36 7 2
36 8 6
36 9 1
36 10 9
36 11 5
36 12 2
36 13 6
36 14 3
36 15 3
36 16 6
36 17 1
36 18 10
36 19 10
36 20 4
36 21 5
36 22 8
36 23 1
36 24 4
36 25 10
36 26 9
36 27 9
36 28 9
36 29 2
36 30 6
36 31 2
36 32 4
36 33 3
36 34 10
36 35 9
37 0 9
37 1 3
37 2 1
37 3 8
37 4 10
37 5 6
37 6 3
37 7 10
37 8 10
37 9 1
37 10 1
37 11 1
37 12 1
37 13 9
37 14 1
37 15 7
37 16 1
37 17 5
37 18 7
37 19 5
37 20 9
37 21 1
37 22 9
37 23 8
37 24 2
37 25 9
37 26 9
37 27 10
37 28 2
37 29 10
37 30 7
37 31 8
37 32 1
37 33 10
37 34 6
37 35 5
37 36 7
38 0 5
38 1 1
38 2 6
38 3 8
38 4 1
38 5 3
38 6 5
38 7 2
38 8 10
38 9 9
38 10 5
38 11 5
38 12 2
38 13 2
38 14 4
38 15 10
38 16 10
38 17 3
38 18 6
38 19 2
38 20 3
38 21 3
38 22 3
38 23 4
38 24 7
38 25 10
38 26 5
38 27 9
38 28 9
38 29 6
38 30 10
38 31 1
38 32 6
38 33 6
38 34 1
38 35 8
38 36 9
38 37 7
39 0 4
39 1 9
39 2 9
39 3 5
39 4 4
39 5 4
39 6 8
39 7 7
39 8 5
39 9 2
39 10 6
39 11 3
39 12 5
39 13 3
39 14 8
39 15 2
39 16 7
39 17 6
39 18 7
39 19 10
39 20 5
39 21 6
39 22 9
39 23 7
39 24 7
39 25 7
39 26 5
39 27 10
39 28 8
39 29 3
39 30 9
39 31 6
39 32 3
39 33 3
39 34 9
39 35 10
39 36 9
39 37 1
39 38 1
40 0 5
40 1 2
40 2 4
40 3 6
40 4 6
40 5 3
40 6 3
40 7 8
40 8 7
40 9 3
40 10 10
40 11 7
40 12 8
40 13 9
40 14 2
40 15 5
40 16 1
40 17 2
40 18 6
40 19 10
40 20 7
40 21 6
40 22 3
40 23 1
40 24 1
40 25 1
40 26 4
40 27 4
40 28 4
40 29 4
40 30 6
40 31 9
40 32 2
40 33 3
40 34 10
40 35 5
40 36 5
40 37 8
40 38 5
40 39 8
41 0 2
41 1 10
41 2 5
41 3 1
41 4 5
41 5 10
41 6 5
41 7 4
41 8 5
41 9 6
41 10 9
41 11 7
41 12 4
41 13 7
41 14 10
41 15 6
41 16 8
41 17 10
41 18 4
41 19 4
41 20 8
41 21 6
41 22 3
41 23 2
41 24 2
41 25 2
41 26 4
41 27 2
41 28 4
41 29 9
41 30 1
41 31 2
41 32 8
41 33 3
41 34 4
41 35 8
41 36 8
41 37 4
41 38 5
41 39 8
41 40 1
42 0 8
42 1 3
42 2 4
42 3 5
42 4 6
42 5 7
42 6 8
42 7 6
42 8 5
42 9 6
42 10 8
42 11 7
42 12 9
42 13 4
42 14 6
42 15 8
42 16 5
42 17 4
42 18 4
42 19 1
42 20 7
42 21 9
42 22 2
42 23 9
42 24 2
42 25 2
42 26 10
42 27 4
42 28 8
42 29 7
42 30 1
42 31 3
42 32 10
42 33 1
42 34 10
42 35 1
42 36 2
42 37 8
42 38 8
42 39 8
42 40 2
42 41 7
43 0 7
43 1 7
43 2 6
43 3 8
43 4 2
43 5 2
43 6 2
43 7 5
43 8 1
43 9 4
43 10 2
43 11 1
43 12 8
43 13 10
43 14 6
43 15 1
43 16 2
43 17 3
43 18 10
43 19 8
43 20 4
43 21 10
43 22 3
43 23 2
43 24 6
43 25 8
43 26 4
43 27 8
43 28 10
43 29 7
43 30 9
43 31 5
43 32 2
43 33 5
43 34 6
43 35 2
43 36 4
43 37 2
43 38 3
43 39 6
43 40 6
43 41 5
43 42 10
44 0 6
44 1 6
44 2 10
44 3 4
44 4 10
44 5 3
44 6 3
44 7 6
44 8 7
44 9 2
44 10 9
44 11 6
44 12 8
44 13 5
44 14 10
44 15 2
44 16 1
44 17 3
44 18 1
44 19 1
44 20 4
44 21 2
44 22 8
44 23 8
44 24 10
44 25 6
44 26 1
44 27 10
44 28 2
44 29 6
44 30 1
44 31 8
44 32 6
44 33 7
44 34 6
44 35 10
44 36 2
44 37 9
44 38 6
44 39 3
44 40 4
44 41 9
44 42 10
44 43 7
45 0 6
45 1 8
45 2 10
45 3 5
45 4 8
45 5 8
45 6 4
45 7 6
45 8 1
45 9 6
45 10 2
45 11 3
45 12 1
45 13 5
45 14 10
45 15 5
45 16 7
45 17 9
45 18 10
45 19 6
45 20 3
45 21 9
45 22 8
45 23 3
45 24 10
45 25 10
45 26 6
45 27 1
45 28 10
45 29 4
45 30 2
45 31 10
45 32 4
45 33 6
45 34 10
45 35 1
45 36 8
45 37 8
45 38 2
45 39 5
45 40 1
45 41 9
45 42 9
45 43 8
45 44 8
46 0 7
46 1 10
46 2 8
46 3 1
46 4 2
46 5 8
46 6 4
46 7 5
46 8 10
46 9 2
46 10 10
46 11 6
46 12 4
46 13 10
46 14 1
46 15 3
46 16 6
46 17 2
46 18 4
46 19 1
46 20 5
46 21 10
46 22 6
46 23 6
46 24 6
46 25 10
46 26 10
46 27 1
46 28 2
46 29 3
46 30 4
46 31 8
46 32 9
46 33 9
46 34 7
46 35 9
46 36 5
46 37 8
46 38 2
46 39 8
46 40 5
46 41 4
46 42 8
46 43 8
46 44 6
46 45 8
47 0 9
47 1 10
47 2 10
47 3 5
47 4 5
47 5 8
47 6 1
47 7 5
47 8 10
47 9 3
47 10 5
47 11 8
47 12 5
47 13 10
47 14 2
47 15 7
47 16 4
47 17 1
47 18 2
47 19 5
47 20 7
47 21 4
47 22 3
47 23 7
47 24 7
47 25 9
47 26 6
47 27 5
47 28 10
47 29 5
47 30 9
47 31 8
47 32 3
47 33 6
47 34 4
47 35 3
47 36 1
47 37 4
47 38 3
47 39 4
47 40 4
47 41 3
47 42 6
47 43 3
47 44 3
47 45 9
47 46 8
48 0 6
48 1 3
48 2 7
48 3 1
48 4 8
48 5 9
48 6 1
48 7 2
48 8 8
48 9 6
48 10 2
48 11 1
48 12 4
48 13 9
48 14 10
48 15 4
48 16 10
48 17 8
48 18 1
48 19 3
48 20 3
48 21 4
48 22 7
48 23 7
48 24 5
48 25 9
48 26 5
48 27 1
48 28 1
48 29 8
48 30 1
48 31 7
48 32 3
48 33 7
48 34 8
48 35 1
48 36 8
48 37 10
48 38 7
48 39 3
48 40 9
48 41 2
48 42 2
48 43 2
48 44 4
48 45 1
48 46 10
48 47 4
49 0 2
49 1 10
49 2 10
49 3 4
49 4 9
49 5 8
49 6 3
49 7 2
49 8 4
49 9 2
49 10 10
49 11 4
49 12 8
49 13 9
49 14 9
49 15 3
49 16 1
49 17 1
49 18 7
49 19 6
49 20 5
49 21 9
49 22 4
49 23 5
49 24 9
49 25 3
49 26 8
49 27 6
49 28 3
49 29 10
49 30 10
49 31 9
49 32 10
49 33 8
49 34 4
49 35 7
49 36 7
49 37 10
49 38 5
49 39 1
49 40 4
49 41 2
49 42 10
49 43 10
49 44 5
49 45 6
49 46 3
49 47 6
49 48 9
50 0 1
50 1 3
50 2 3
50 3 6
50 4 1
50 5 3
50 6 8
50 7 2
50 8 3
50 9 8
50 10 3
50 11 1
50 12 2
50 13 6
50 14 3
50 15 6
50 16 10
50 17 5
50 18 3
50 19 6
50 20 2
50 21 1
50 22 7
50 23 8
50 24 2
50 25 8
50 26 5
50 27 9
50 28 1
50 29 3
50 30 4
50 31 3
50 32 8
50 33 5
50 34 5
50 35 9
50 36 10
50 37 6
50 38 2
50 39 9
50 40 1
50 41 3
50 42 4
50 43 2
50 44 8
50 45 6
50 46 1
50 47 9
50 48 7
50 49 10
51 0 5
51 1 7
51 2 2
51 3 3
51 4 5
51 5 9
51 6 3
51 7 6
51 8 2
51 9 4
51 10 6
51 11 5
51 12 6
51 13 3
51 14 3
51 15 8
51 16 4
51 17 4
51 18 6
51 19 5
51 20 3
51 21 6
51 22 6
51 23 10
51 24 3
51 25 9
51 26 9
51 27 2
51 28 9
51 29 2
51 30 7
51 31 5
51 32 4
51 33 4
51 34 1
51 35 10
51 36 1
51 37 10
51 38 8
51 39 7
51 40 5
51 41 8
51 42 2
51 43 1
51 44 7
51 45 5
51 46 1
51 47 4
51 48 6
51 49 10
51 50 4
52 0 9
52 1 7
52 2 4
52 3 3
52 4 6
52 5 2
52 6 7
52 7 1
52 8 5
52 9 7
52 10 2
52 11 6
52 12 8
52 13 1
52 14 9
52 15 10
52 16 10
52 17 10
52 18 3
52 19 9
52 20 10
52 21 3
52 22 8
52 23 10
52 24 10
52 25 5
52 26 9
52 27 3
52 28 9
52 29 7
52 30 8
52 31 2
52 32 6
52 33 4
52 34 5
52 35 4
52 36 5
52 37 5
52 38 1
52 39 6
52 40 7
52 41 1
52 42 1
52 43 9
52 44 7
52 45 3
52 46 5
52 47 7
52 48 5
52 49 5
52 50 10
52 51 7
53 0 1
53 1 2
53 2 10
53 3 7
53 4 2
53 5 9
53 6 7
53 7 5
53 8 3
53 9 5
53 10 6
53 11 4
53 12 9
53 13 10
53 14 8
53 15 6
53 16 9
53 17 1
53 18 3
53 19 10
53 20 6
53 21 8
53 22 2
53 23 5
53 24 8
53 25 6
53 26 1
53 27 3
53 28 9
53 29 6
53 30 6
53 31 8
53 32 1
53 33 4
53 34 9
53 35 6
53 36 4
53 37 8
53 38 1
53 39 6
53 40 1
53 41 2
53 42 3
53 43 6
53 44 7
53 45 6
53 46 7
53 47 1
53 48 2
53 49 10
53 50 4
53 51 3
53 52 2
54 0 3
54 1 7
54 2 1
54 3 5
54 4 1
54 5 5
54 6 6
54 7 5
54 8 9
54 9 5
54 10 7
54 11 9
54 12 5
54 13 6
54 14 8
54 15 3
54 16 4
54 17 7
54 18 6
54 19 8
54 20 4
54 21 10
54 22 6
54 23 6
54 24 6
54 25 4
54 26 2
54 27 6
54 28 6
54 29 2
54 30 8
54 31 8
54 32 8
54 33 3
54 34 6
54 35 8
54 36 4
54 37 3
54 38 8
54 39 5
54 40 8
54 41 4
54 42 2
54 43 5
54 44 3
54 45 8
54 46 5
54 47 8
54 48 4
54 49 8
54 50 9
54 51 2
54 52 9
54 53 8
55 0 9
55 1 2
55 2 7
55 3 4
55 4 8
55 5 4
55 6 8
55 7 7
55 8 10
55 9 6
55 10 8
55 11 2
55 12 4
55 13 3
55 14 4
55 15 2
55 16 10
55 17 8
55 18 8
55 19 7
55 20 8
55 21 4
55 22 2
55 23 9
55 24 8
55 25 9
55 26 6
55 27 8
55 28 5
55 29 1
55 30 3
55 31 2
55 32 6
55 33 6
55 34 6
55 35 5
55 36 7
55 37 4
55 38 2
55 39 9
55 40 3
55 41 1
55 42 9
55 43 7
55 44 10
55 45 3
55 46 6
55 47 9
55 48 9
55 49 5
55 50 1
55 51 8
55 52 1
55 53 3
55 54 5
56 0 4
56 1 6
56 2 5
56 3 4
56 4 8
56 5 10
56 6 2
56 7 9
56 8 9
56 9 2
56 10 10
56 11 3
56 12 10
56 13 8
56 14 4
56 15 7
56 16 9
56 17 3
56 18 4
56 19 5
56 20 8
56 21 4
56 22 2
56 23 3
56 24 10
56 25 1
56 26 7
56 27 9
56 28 5
56 29 3
56 30 8
56 31 6
56 32 6
56 33 2
56 34 3
56 35 8
56 36 6
56 37 3
56 38 1
56 39 1
56 40 3
56 41 1
56 42 9
56 43 5
56 44 1
56 45 1
56 46 4
56 47 2
56 48 1
56 49 3
56 50 7
56 51 7
56 52 10
56 53 1
56 54 10
56 55 4
57 0 7
57 1 2
57 2 6
57 3 8
57 4 7
57 5 3
57 6 10
57 7 8
57 8 7
57 9 10
57 10 10
57 11 4
57 12 6
57 13 4
57 14 1
57 15 7
57 16 6
57 17 6
57 18 4
57 19 1
57 20 3
57 21 3
57 22 2
57 23 3
57 24 2
57 25 6
57 26 5
57 27 7
57 28 6
57 29 2
57 30 6
57 31 4
57 32 1
57 33 7
57 34 6
57 35 2
57 36 4
57 37 6
57 38 4
57 39 6
57 40 1
57 41 3
57 42 7
57 43 2
57 44 7
57 45 8
57 46 3
57 47 10
57 48 5
57 49 3
57 50 9
57 51 5
57 52 1
57 53 9
57 54 8
57 55 10
57 56 9
58 0 10
58 1 6
58 2 10
58 3 2
58 4 2
58 5 2
58 6 10
58 7 6
58 8 10
58 9 3
58 10 9
58 11 4
58 12 1
58 13 7
58 14 9
58 15 3
58 16 4
58 17 4
58 18 5
58 19 4
58 20 7
58 21 2
58 22 1
58 23 6
58 24 4
58 25 4
58 26 9
58 27 7
58 28 3
58 29 5
58 30 10
58 31 9
58 32 1
58 33 6
58 34 8
58 35 9
58 36 7
58 37 2
58 38 6
58 39 5
58 40 1
58 41 9
58 42 1
58 43 5
58 44 2
58 45 3
58 46 5
58 47 10
58 48 5
58 49 2
58 50 9
58 51 2
58 52 7
58 53 9
58 54 4
58 55 2
58 56 8
58 57 7
59 0 1
59 1 3
59 2 2
59 3 10
59 4 4
59 5 9
59 6 7
59 7 2
59 8 6
59 9 10
59 10 7
59 11 5
59 12 5
59 13 10
59 14 6
59 15 5
59 16 2
59 17 1
59 18 7
59 19 1
59 20 8
59 21 2
59 22 2
59 23 10
59 24 1
59 25 1
59 26 8
59 27 8
59 28 10
59 29 9
59 30 2
59 31 10
59 32 5
59 33 8
59 34 9
59 35 10
59 36 4
59 37 5
59 38 5
59 39 8
59 40 6
59 41 9
59 42 1
59 43 2
59 44 5
59 45 10
59 46 6
59 47 4
59 48 10
59 49 5
59 50 1
59 51 8
59 52 8
59 53 3
59 54 1
59 55 6
59 56 10
59 57 2
59 58 4
